c 3 __LINUXTHREADS_OLD__
c 7 __UCLIBC_MALLOC_DEBUGGING__
c 2 __UCLIBC_HAS_THREADS_NATIVE__
c 5 __UCLIBC_HAS_STDIO_BUFSIZ_NONE__
c 1 __UCLIBC_UCLINUX_BROKEN_MUNMAP__
c 4 __MALLOC__
c 8 __LINUXTHREADS_NEW__
c 6 __UCLIBC_HAS_THREADS__
p cnf 8 1
2 -1 3 5 -6 -4 8 -7 1
